\* Problem: Unknown *\

Maximize
 obj: + xp_0_0 + xp_0_1 + xp_0_2 + xp_0_3 + xp_0_4 + xp_0_5 + xp_0_6
 + xp_1_0 + xp_1_1 + xp_2_0 + xp_2_1 + xp_2_2 + xp_2_3 + xp_2_4 + xp_3_0
 + xp_3_1 + xp_3_2 + xp_4_0 + xp_5_0 + xp_5_1 + xp_5_2 + xp_6_0 + xp_6_1
 + xp_6_2 + xp_7_0 + xp_7_1 + xp_8_0 + xp_9_0 + xp_10_0 + xp_11_0
 + xp_11_1 + xp_11_2 + xp_11_3 + xp_12_0 + xp_13_0 + xp_13_1 + xp_14_0
 + xp_14_1 + xp_15_0 + xp_16_0 + xp_17_0 + xp_17_1 + xp_17_2 + xp_17_3
 + xp_17_4 + xp_18_0 + xp_18_1 + xp_18_2 + xp_18_3 + xp_19_0 + xp_19_1
 + xp_19_2 + xp_19_3 + xp_20_0 + xp_20_1 + xp_20_2 + xp_20_3 + xp_21_0
 + xp_21_1 + xp_21_2 + xp_21_3 + xp_22_0 + xp_22_1 + xp_22_2 + xp_22_3
 + xp_22_4 + xp_22_5 + xp_23_0 + xp_23_1 + xp_23_2 + xp_23_3

Subject To
 r_1: 0 xp_0_0 <= 26.1838588989845
 r_2: + xp_22_4 + xp_18_3 + xp_5_1 + xp_2_3 <= 26.0136785539814
 r_3: + xp_18_2 + xp_6_2 <= 26.7924528301887
 r_4: + xp_17_3 + xp_15_0 + xp_0_4 <= 27.3778920308483
 r_5: + xp_18_0 <= 25.5507088331516
 r_6: + xp_18_1 + xp_0_6 <= 26.5090230242688
 r_7: + xp_20_2 <= 26.1838588989845
 r_8: + xp_23_3 + xp_11_3 + xp_5_2 + xp_3_2 + xp_2_1 <= 26.0136785539814
 r_9: + xp_23_2 + xp_11_1 + xp_3_1 <= 26.7924528301887
 r_10: + xp_17_2 + xp_3_0 <= 27.3778920308483
 r_11: + xp_18_1 + xp_11_2 + xp_0_6 <= 25.5507088331516
 r_12: + xp_11_0 <= 26.5090230242688
 r_13: 0 xp_0_0 <= 28.3056478405316
 r_14: + xp_21_2 + xp_14_0 + xp_0_3 + xp_0_1 <= 26.0136785539814
 r_15: + xp_21_0 + xp_19_3 <= 26.7924528301887
 r_16: + xp_22_2 + xp_21_1 + xp_0_5 + xp_0_2 <= 27.6367006487488
 r_17: + xp_0_0 <= 25.5507088331516
 r_18: + xp_4_0 + xp_0_6 + xp_0_4 <= 26.1838588989845
 r_19: + xp_19_0 <= 26.1838588989845
 r_20: + xp_21_3 + xp_19_2 + xp_19_1 + xp_14_1 <= 28.3056478405316
 r_21: + xp_20_1 <= 26.0136785539814
 r_22: + xp_21_2 + xp_7_1 <= 26.7924528301887
 r_23: + xp_22_4 + xp_22_3 <= 27.6367006487488
 r_24: + xp_23_3 + xp_6_1 + xp_3_2 + xp_0_3 <= 26.9620253164557
 r_25: 0 xp_0_0 <= 28.3056478405316
 r_26: + xp_18_3 + xp_0_1 <= 25.5507088331516
 r_27: + xp_11_3 <= 26.0136785539814
 r_28: + xp_19_2 <= 26.0136785539814
 r_29: + xp_20_3 <= 26.7924528301887
 r_30: + xp_2_0 <= 26.7924528301887
 r_31: + xp_23_2 + xp_18_2 + xp_6_2 + xp_3_1 + xp_2_4
 <= 26.9620253164557
 r_32: + xp_2_2 <= 28.3056478405316
 r_33: + xp_11_1 + xp_2_3 <= 26.7924528301887
 r_34: + xp_19_3 + xp_2_1 <= 26.7924528301887
 r_35: 0 xp_0_0 <= 27.6367006487488
 r_36: + xp_9_0 <= 27.6367006487488
 r_37: + xp_21_1 + xp_13_1 <= 26.9620253164557
 r_38: + xp_1_1 <= 29.2984869325997
 r_39: + xp_17_1 + xp_0_5 <= 27.3778920308483
 r_40: + xp_0_2 <= 25.5507088331516
 r_41: + xp_12_0 + xp_2_4 <= 26.9620253164557
 r_42: + xp_21_1 <= 26.9620253164557
 r_43: + xp_16_0 <= 26.9620253164557
 r_44: + xp_23_3 + xp_23_2 + xp_23_1 <= 29.2984869325997
 r_45: + xp_3_2 + xp_3_1 <= 27.3778920308483
 r_46: + xp_18_2 + xp_0_3 <= 25.5507088331516
 r_47: + xp_22_1 + xp_13_1 <= 29.2984869325997
 r_48: + xp_13_0 <= 29.2984869325997
 r_49: + xp_17_4 <= 27.3778920308483
 r_50: 0 xp_0_0 <= 25.5507088331516
 r_51: + xp_22_5 + xp_1_1 <= 27.3778920308483
 r_52: + xp_8_0 <= 27.3778920308483
 r_53: + xp_1_0 <= 27.3778920308483
 r_54: + xp_0_5 + xp_0_4 <= 25.5507088331516
 r_55: 0 xp_0_0 <= 27.3778920308483
 r_56: 0 xp_0_0 <= 27.3778920308483
 r_57: + xp_22_2 <= 25.5507088331516
 r_58: + xp_22_3 + xp_6_1 + xp_5_0 <= 25.5507088331516
 r_59: + xp_22_0 + xp_17_1 <= 25.5507088331516
 r_60: + xp_23_1 + xp_6_0 <= 25.5507088331516
 r_61: + xp_23_0 + xp_22_1 + xp_17_4 <= 25.5507088331516
 r_62: + xp_22_5 + xp_17_0 <= 25.5507088331516
 r_63: + xp_22_4 + xp_17_3 + xp_11_2 + xp_6_2 + xp_5_1
 <= 25.5507088331516
 r_64: + xp_23_3 + xp_23_2 + xp_17_2 + xp_5_2 <= 25.5507088331516
 r_65: + xp_20_1 + xp_19_2 + xp_14_1 + xp_7_1 + xp_2_2
 <= 28.3056478405316
 r_66: + xp_21_3 + xp_20_3 + xp_7_0 <= 28.3056478405316
 r_67: + xp_20_2 + xp_19_1 + xp_10_0 <= 28.3056478405316
 r_68: + xp_20_0 <= 28.3056478405316

Bounds
 0 <= xp_0_0 <= 28.4783614774663
 0 <= xp_0_1 <= 10.1833697342624
 0 <= xp_0_2 <= 12.8872437372429
 0 <= xp_0_3 <= 5.0916848671312
 0 <= xp_0_4 <= 1.19390543207535
 0 <= xp_0_5 <= 3.89777943505585
 0 <= xp_0_6 <= 1.19390543207535
 0 <= xp_1_0 <= 20.1326544267731
 0 <= xp_1_1 <= 15.0994908200798
 0 <= xp_2_0 <= 24.4518305921117
 0 <= xp_2_1 <= 3.89777943505585
 0 <= xp_2_2 <= 1.06515398177658
 0 <= xp_2_3 <= 4.26061592710633
 0 <= xp_2_4 <= 1.06515398177658
 0 <= xp_3_0 <= 24.8146826752799
 0 <= xp_3_1 <= 5.32578550000065
 0 <= xp_3_2 <= 2.1420090974172
 0 <= xp_4_0 <= 26.2192708813789
 0 <= xp_5_0 <= 11.2368303777338
 0 <= xp_5_1 <= 7.49122025182254
 0 <= xp_5_2 <= 7.49122025182254
 0 <= xp_6_0 <= 16.8552455666007
 0 <= xp_6_1 <= 3.37104911332014
 0 <= xp_6_2 <= 3.37104911332014
 0 <= xp_7_0 <= 16.1529436679923
 0 <= xp_7_1 <= 6.46117746719694
 0 <= xp_8_0 <= 20.3199349330686
 0 <= xp_9_0 <= 18.8451009459911
 0 <= xp_10_0 <= 18.8451009459911
 0 <= xp_11_0 <= 27.2844560453909
 0 <= xp_11_1 <= 14.5961549705133
 0 <= xp_11_2 <= 7.7955588701117
 0 <= xp_11_3 <= 9.97267136912101
 0 <= xp_12_0 <= 17.6980078449307
 0 <= xp_13_0 <= 14.7483398707756
 0 <= xp_13_1 <= 2.45805664512927
 0 <= xp_14_0 <= 9.36402531477817
 0 <= xp_14_1 <= 7.02301898608363
 0 <= xp_15_0 <= 16.2231738578532
 0 <= xp_16_0 <= 15.5676920858187
 0 <= xp_17_0 <= 25.9968947690501
 0 <= xp_17_1 <= 11.7284339112008
 0 <= xp_17_2 <= 2.61021815871498
 0 <= xp_17_3 <= 2.61021815871498
 0 <= xp_17_4 <= 2.61021815871498
 0 <= xp_18_0 <= 22.5790099380383
 0 <= xp_18_1 <= 12.454153668655
 0 <= xp_18_2 <= 3.89777943505585
 0 <= xp_18_3 <= 4.65859479854327
 0 <= xp_19_0 <= 29.5435232548017
 0 <= xp_19_1 <= 2.2590672094108
 0 <= xp_19_2 <= 2.2590672094108
 0 <= xp_19_3 <= 9.0362688376432
 0 <= xp_20_0 <= 27.6707103962872
 0 <= xp_20_1 <= 8.18181322100799
 0 <= xp_20_2 <= 4.28403378595214
 0 <= xp_20_3 <= 2.14201689297607
 0 <= xp_21_0 <= 19.2313630924462
 0 <= xp_21_1 <= 11.564571263751
 0 <= xp_21_2 <= 1.88450619681967
 0 <= xp_21_3 <= 7.7955588701117
 0 <= xp_22_0 <= 14.3971811259126
 0 <= xp_22_1 <= 3.89777943505585
 0 <= xp_22_2 <= 1.65040556395022
 0 <= xp_22_3 <= 13.3437438691178
 0 <= xp_22_4 <= 3.89777943505585
 0 <= xp_22_5 <= 1.65040556395022
 0 <= xp_23_0 <= 22.1927399960243
 0 <= xp_23_1 <= 8.8489961269065
 0 <= xp_23_2 <= 3.89777943505585
 0 <= xp_23_3 <= 3.89777943505585

End
